NAME: random16
TYPE: TSP
COMMENT: random16
DIMENSION: 16
EDGE_WEIGHT_TYPE: EUC_2D
NODE_COORD_SECTION
1 22.329107915353884 52.31633414006761
2 55.07014565811811 4.560195013280632
3 36.07288353477727 22.30809416912888
4 68.87261618213564 16.37314250008992
5 7.032486680550032 94.10108602458361
6 56.36813802348253 7.799233938998706
7 72.26405111248398 15.845217352316643
8 25.028130674402338 29.348725610219752
9 69.66107142085949 46.426408804015175
10 21.506214371433952 44.68262620796576
11 12.087875153895688 91.7687007744725
12 56.644632871919555 47.20193157419273
13 31.456642464721153 4.321572973662613
14 75.24449169599731 54.326904387131805
15 76.71904257147007 79.04487662157868
16 7.222137937463014 65.97158344078476
EOF